 Code   332
 Dimension, Fixed Cost
   100        3000
 Facility, Client, Transportation Cost
     1       12           4
     1       15           4
     1       20           4
     1       21           1
     1       22           3
     1       33           3
     1       62           4
     1       77           1
     1       81           3
     1       97           1
     2        4           3
     2       30           1
     2       41           1
     2       43           4
     2       53           0
     2       59           4
     2       89           2
     2       92           3
     3       11           4
     3       32           0
     3       37           0
     3       38           0
     3       54           3
     3       57           0
     3       72           0
     3       76           0
     4       10           4
     4       11           2
     4       19           4
     4       21           0
     4       44           4
     4       51           2
     4       65           1
     4       71           0
     4       79           1
     4       84           3
     4       93           2
     5        5           2
     5        6           0
     5       20           3
     5       37           2
     5       38           1
     5       40           2
     5       59           0
     5       66           1
     5       75           2
     5       92           1
     6       10           3
     6       15           4
     6       17           3
     6       22           2
     6       42           2
     6       60           1
     6       61           4
     6       77           1
     6       80           0
     6       99           0
     7        2           0
     7       13           4
     7       14           4
     7       37           4
     7       68           1
     7       91           0
     8        7           4
     8       23           1
     8       25           2
     8       49           4
     8       58           3
     8       61           4
     8       69           1
     8       90           2
     8       98           1
     9       10           0
     9       24           0
     9       27           2
     9       33           2
     9       46           1
     9       79           2
     9       84           4
    10       17           3
    10       19           0
    10       22           3
    10       28           3
    10       32           3
    10       37           4
    10       42           4
    10       48           3
    10       63           1
    10       72           2
    10       73           4
    10       77           2
    10       81           1
    11        4           1
    11        8           2
    11       23           0
    11       65           3
    11       70           3
    11       76           0
    11       93           4
    11      100           1
    12        4           4
    12       28           3
    12       39           4
    12       64           0
    12       91           3
    12       94           1
    13        7           1
    13       25           0
    13       39           1
    13       40           3
    13       49           3
    13       61           4
    13       68           3
    13       73           3
    13       80           4
    13       81           4
    14       13           2
    14       16           3
    14       24           4
    14       30           0
    14       41           4
    14       49           4
    14       50           2
    14       71           1
    14       75           1
    14       77           3
    14       80           0
    14       98           3
    15        6           1
    15        9           0
    15       14           0
    15       28           2
    15       42           4
    15       44           0
    15       45           1
    16        4           2
    16       61           0
    16       70           4
    16       72           2
    16       73           2
    16       74           0
    16       88           4
    16       89           0
    17        6           2
    17        7           2
    17       11           0
    17       21           2
    17       24           3
    17       31           1
    17       50           0
    17       62           0
    17       63           0
    17       81           3
    17       83           3
    17       84           0
    17       87           4
    17       97           1
    18        6           2
    18       21           1
    18       26           4
    18       53           1
    18       76           1
    18       80           1
    18       92           2
    18       97           0
    19        6           0
    19       23           0
    19       29           2
    19       42           4
    19       45           0
    19       55           0
    19       57           2
    19       63           3
    19       84           4
    19       92           3
    19       97           1
    19      100           2
    20        8           2
    20       24           1
    20       25           2
    20       59           1
    20       65           3
    20       78           0
    20       79           0
    21        4           4
    21       11           4
    21       23           0
    21       62           4
    21       65           3
    21       69           2
    22        3           1
    22       27           3
    22       29           3
    22       43           0
    22       48           3
    22       50           2
    22       57           3
    22       59           4
    22       61           3
    22       78           2
    22       96           2
    22       98           0
    23        5           3
    23       13           4
    23       15           4
    23       19           4
    23       20           2
    23       21           2
    23       51           2
    23       63           1
    23       75           1
    23       82           4
    24       18           4
    24       29           2
    24       35           1
    24       40           0
    24       48           0
    24       54           0
    24       60           1
    24       96           4
    25        6           0
    25       14           0
    25       20           2
    25       26           3
    25       28           4
    25       34           2
    25       37           4
    26       21           1
    26       24           1
    26       30           0
    26       37           2
    26       77           4
    26       91           4
    27        9           2
    27       15           4
    27       19           4
    27       26           4
    27       32           4
    27       34           4
    27       41           3
    27       50           2
    27       61           2
    27       62           2
    27       69           4
    27       81           0
    27       86           1
    27       89           2
    27       95           2
    28        4           3
    28       15           2
    28       26           3
    28       35           0
    28       54           0
    28       57           4
    28       65           3
    28       69           4
    28       74           2
    28       80           2
    28       81           4
    28      100           3
    29       23           4
    29       26           3
    29       28           1
    29       67           3
    29       82           0
    29       99           2
    30        6           4
    30       11           3
    30       20           1
    30       53           2
    30       66           3
    30       76           4
    30       90           4
    30       93           3
    31        3           4
    31        9           0
    31       13           1
    31       16           0
    31       18           2
    31       20           4
    31       31           4
    31       35           1
    31       40           4
    31       51           1
    31       66           1
    31       75           1
    31       77           1
    31       94           3
    31       99           2
    32       24           3
    32       26           0
    32       35           3
    32       51           1
    32       67           1
    32       68           1
    32       84           4
    32       89           1
    32       90           2
    32       99           0
    33       15           0
    33       27           0
    33       28           3
    33       31           3
    33       55           1
    33       59           3
    33       65           0
    33       68           2
    33       72           2
    33       82           3
    33       87           3
    33       97           0
    34        9           0
    34       10           0
    34       16           0
    34       28           3
    34       34           0
    34       46           4
    34       49           1
    34       54           2
    34       57           4
    34       66           1
    34       77           0
    34       80           4
    34       95           4
    34       96           4
    34       99           1
    35       17           1
    35       43           4
    35       46           2
    35       73           0
    35       78           2
    35       81           2
    35       86           0
    36        1           3
    36        3           3
    36       18           4
    36       22           3
    36       25           0
    36       27           0
    36       32           2
    36       34           1
    36       35           4
    36       44           0
    36       69           3
    36       86           3
    36       95           0
    37        4           2
    37        9           3
    37       18           4
    37       20           4
    37       49           0
    37       52           1
    37       55           3
    37       71           0
    37       87           0
    37       89           1
    37       92           1
    38       35           3
    38       43           3
    38       48           0
    38       59           4
    38       68           1
    38       70           4
    38       73           3
    38       75           2
    38       79           2
    38       85           3
    38       89           2
    38       91           2
    39       16           2
    39       19           1
    39       23           2
    39       29           4
    39       33           0
    39       34           1
    39       41           2
    39       52           0
    39       54           3
    39       82           4
    39       88           1
    39      100           2
    40        2           0
    40        8           3
    40       18           4
    40       23           3
    40       40           1
    40       52           3
    40       53           2
    40       67           3
    40       70           4
    40       76           4
    40       78           0
    40       92           2
    41        5           4
    41       20           3
    41       24           3
    41       27           4
    41       50           2
    41       54           4
    41       59           3
    41       68           0
    41       75           2
    41       80           0
    41       94           3
    42        2           3
    42        3           4
    42        5           1
    42       31           4
    42       36           1
    42       37           2
    42       38           2
    42       42           1
    42       45           2
    42       46           3
    42       55           3
    42       58           3
    42       71           1
    42       83           0
    43        1           1
    43        5           1
    43       31           0
    43       43           3
    43       64           4
    43       95           4
    44        6           1
    44        7           1
    44       12           4
    44       29           4
    44       33           2
    44       38           0
    44       39           1
    44       44           0
    44       45           4
    44       56           1
    44       74           2
    44       94           4
    44      100           2
    45        1           1
    45       15           4
    45       55           1
    45       73           1
    45       79           2
    46       11           1
    46       12           4
    46       34           2
    46       35           2
    46       43           2
    46       52           0
    46       58           1
    46       74           3
    46       88           3
    46       98           1
    47       12           0
    47       14           2
    47       15           3
    47       20           4
    47       29           4
    47       30           2
    47       37           4
    47       41           4
    47       55           3
    47       56           2
    47       71           2
    47       76           1
    48        7           0
    48        8           2
    48       21           2
    48       22           3
    48       31           3
    48       51           4
    48       66           0
    48       71           2
    48       75           0
    49        3           4
    49        7           3
    49       30           1
    49       39           0
    49       51           3
    49       52           0
    49       69           3
    49       73           3
    49       85           2
    49      100           2
    50       14           0
    50       17           2
    50       19           2
    50       20           4
    50       21           0
    50       25           3
    50       39           4
    50       42           1
    50       44           1
    50       45           3
    50       70           2
    50       79           1
    50       85           3
    50       90           3
    50       96           2
    51        1           1
    51       34           0
    51       38           1
    51       48           0
    51       53           4
    51       63           1
    51       66           3
    51       74           3
    51       82           2
    51       87           3
    51       93           3
    51      100           2
    52       21           0
    52       22           2
    52       36           1
    52       45           2
    52       52           4
    52       54           3
    52       59           0
    52       65           0
    52       69           3
    52       70           2
    52       78           3
    52       83           4
    53       11           3
    53       27           1
    53       32           2
    53       36           2
    53       44           1
    53       56           2
    53       58           1
    53       72           1
    53       86           3
    54        2           0
    54        8           4
    54       30           0
    54       47           1
    54       89           0
    54       91           4
    54       92           2
    55        8           0
    55       10           3
    55       23           1
    55       51           0
    55       63           2
    55       86           4
    55       88           4
    55       94           3
    55       96           3
    55       99           2
    56        2           3
    56       41           4
    56       48           0
    56       55           0
    56       60           4
    56       61           3
    56       64           0
    56       82           4
    56       83           4
    56       85           1
    56       89           0
    56       91           1
    56       93           2
    56      100           0
    57        5           3
    57        6           3
    57       30           4
    57       69           4
    57       70           3
    57       73           2
    57       92           2
    57       93           3
    58       44           2
    58       48           4
    58       63           2
    58       64           0
    58       65           1
    58       68           0
    58       97           1
    59        1           2
    59       11           1
    59       18           2
    59       31           4
    59       32           1
    59       35           4
    59       57           3
    59       58           1
    59       64           0
    59       81           3
    59       84           2
    59       86           0
    59       88           3
    59       94           0
    59       99           3
    60       16           0
    60       17           4
    60       28           2
    60       32           1
    60       42           4
    60       48           3
    60       87           2
    60       95           3
    60       98           4
    61       10           3
    61       18           1
    61       21           2
    61       22           3
    61       38           4
    61       47           2
    61       58           3
    61       67           0
    62        1           3
    62       25           0
    62       26           2
    62       33           0
    62       36           4
    62       42           3
    62       47           4
    62       50           3
    62       61           4
    62       66           3
    62       70           3
    62       86           2
    62       97           1
    63       10           1
    63       14           2
    63       22           4
    63       25           0
    63       30           4
    63       32           2
    63       36           2
    63       47           1
    63       49           3
    63       50           0
    63       52           4
    63       60           3
    63       61           2
    63       93           2
    64        3           4
    64        4           2
    64       26           2
    64       34           4
    64       43           0
    64       49           4
    64       51           0
    64       82           0
    64       84           2
    64       85           4
    64       87           0
    64       89           3
    64       98           0
    65        8           3
    65       26           3
    65       56           3
    65       97           1
    66       31           4
    66       36           0
    66       51           2
    66       76           2
    66       93           2
    66       94           3
    67        4           3
    67       22           1
    67       39           3
    67       40           2
    67       56           3
    67       68           4
    67       75           1
    67       84           4
    67       87           4
    67       90           4
    67       94           4
    68       12           1
    68       16           4
    68       45           3
    68       47           0
    68       54           3
    68       58           3
    68       60           3
    68       71           4
    68       75           0
    68       87           0
    68       88           4
    68       91           2
    69        8           2
    69        9           2
    69       10           1
    69       12           0
    69       13           0
    69       24           3
    69       39           0
    69       42           1
    69       43           1
    69       64           1
    69       85           0
    69       90           3
    70       37           0
    70       45           0
    70       68           4
    70       74           2
    70       99           1
    71        2           1
    71       27           1
    71       39           4
    71       60           0
    71       71           4
    71       73           3
    71       80           0
    71       83           3
    72       26           0
    72       27           3
    72       41           3
    72       53           0
    72       54           1
    72       76           0
    72       80           1
    73        9           3
    73       14           4
    73       18           4
    73       23           0
    73       24           4
    73       33           1
    73       57           2
    73       77           0
    73       88           4
    73       93           4
    73       99           1
    74       30           3
    74       31           1
    74       35           3
    74       39           4
    74       40           3
    74       41           3
    74       47           1
    74       50           2
    74       53           3
    74       56           3
    74       67           0
    74       76           4
    74       88           3
    75       17           1
    75       38           4
    75       47           4
    75       64           1
    75       67           4
    75       72           1
    75       85           1
    75       99           1
    76       15           4
    76       48           1
    76       50           1
    76       66           4
    76       74           4
    76       83           2
    77        1           4
    77        9           0
    77       10           1
    77       17           0
    77       43           3
    77       46           0
    77       62           2
    77       74           0
    77       78           3
    77       84           1
    78        2           0
    78        5           4
    78       13           3
    78       14           4
    78       28           1
    78       48           4
    78       52           1
    78       60           3
    78       67           3
    78       69           4
    78       82           4
    78       91           1
    78       96           0
    79       27           3
    79       38           4
    79       62           0
    79       64           3
    79       67           2
    79       78           2
    79       95           3
    80       25           3
    80       36           1
    80       40           1
    80       52           0
    80       58           2
    80       63           2
    80       80           2
    80       82           4
    80       96           4
    80       97           2
    80      100           3
    81        2           1
    81        6           4
    81        9           0
    81       22           3
    81       38           1
    81       56           2
    81       75           3
    81       95           4
    81       96           4
    81       98           0
    82        3           4
    82        4           0
    82       13           1
    82       15           2
    82       29           3
    82       34           2
    82       45           1
    82       46           4
    82       53           1
    82       66           2
    82       69           3
    82       72           0
    82       85           3
    82       98           0
    83       60           4
    83       77           2
    83       78           1
    83       86           2
    83       91           4
    84        8           4
    84       14           2
    84       16           4
    84       25           1
    84       38           4
    84       40           2
    84       45           0
    84       51           0
    84       56           2
    84       68           3
    84       81           1
    84       86           4
    85        1           1
    85        5           1
    85        7           3
    85       17           1
    85       53           2
    85       55           3
    85       63           4
    85       67           1
    85       73           1
    85       76           2
    85       79           2
    85       84           1
    85       94           2
    86        5           0
    86       13           4
    86       18           0
    86       29           3
    86       33           2
    86       43           4
    86       57           2
    86       65           0
    86       71           0
    86       83           2
    86       97           0
    87       12           4
    87       17           3
    87       59           1
    87       83           3
    87       85           3
    87       88           0
    87       90           1
    87       92           1
    88        7           2
    88       11           3
    88       19           1
    88       31           3
    88       32           1
    88       37           4
    88       47           0
    88       59           1
    88       78           3
    89        3           4
    89       16           0
    89       27           2
    89       41           1
    89       46           0
    89       47           4
    89       50           4
    89       64           0
    89       74           2
    89       77           3
    90        1           1
    90        2           2
    90        5           4
    90       17           1
    90       34           4
    90       36           2
    90       60           0
    90       65           1
    90       79           1
    90       81           2
    90       95           3
    90       98           2
    91        3           1
    91        8           1
    91       12           1
    91       18           4
    91       19           3
    91       25           0
    91       33           2
    91       49           3
    91       58           2
    91       64           4
    91       66           3
    91       78           2
    91       82           0
    91       87           3
    91       98           0
    92        3           4
    92       11           1
    92       30           0
    92       36           0
    92       39           4
    92       41           3
    92       61           4
    92       62           0
    92       83           3
    92       85           1
    92       87           3
    92       90           4
    92       94           0
    93       24           1
    93       28           3
    93       29           4
    93       32           4
    93       44           0
    93       54           2
    93       55           2
    93       56           3
    93       72           4
    93       79           4
    93       90           3
    93       92           2
    93       93           2
    94        7           0
    94       10           0
    94       16           1
    94       29           2
    94       36           4
    94       42           4
    94       46           3
    94       49           3
    94       58           4
    94       70           2
    94       72           4
    94       74           1
    94       90           0
    94       96           0
    95        1           4
    95       19           0
    95       46           4
    95       49           3
    95       53           3
    95       62           4
    95       70           3
    95       86           2
    95       88           1
    95       89           0
    96       12           1
    96       14           3
    96       23           0
    96       56           4
    96       63           1
    96       67           0
    96       95           4
    96       96           2
    96      100           0
    97        7           1
    97        9           4
    97       12           4
    97       13           4
    97       19           4
    97       55           0
    97       57           0
    97       72           4
    98       13           0
    98       33           0
    98       71           0
    99        2           2
    99       16           2
    99       35           2
    99       40           3
    99       44           3
    99       46           4
    99       47           0
    99       62           4
    99       83           2
    99       91           4
    99       95           0
   100       33           0
   100       44           2
   100       52           4
   100       57           1
   100       60           2
   100       62           1
   100       79           0
